Problem:    
Rows:       256
Columns:    89 (72 integer, 72 binary)
Non-zeros:  800
Status:     INTEGER OPTIMAL
Objective:  value = 58.133311 (MINimum)

   No.   Row name        Activity     Lower bound   Upper bound
------ ------------    ------------- ------------- -------------
     1 r.5                   1058.13             0               
     2 r.6                  -992.023      -992.872               
     3 r.7                   58.1333             0               
     4 r.8                     15.13      -981.829               
     5 r.9                   1058.13             0               
     6 r.10                 -958.633      -991.753               
     7 r.11                  58.1333             0               
     8 r.12                  41.3669      -979.468               
     9 r.13                  1058.13             0               
    10 r.14                  -966.88      -987.364               
    11 r.15                  58.1333             0               
    12 r.16                  41.3669      -967.152               
    13 r.17                  1058.13             0               
    14 r.18                 -979.515      -993.528               
    15 r.19                  58.1333             0               
    16 r.20                  20.4845      -984.358               
    17 r.21                  1058.13             0               
    18 r.22                 -985.987      -993.964               
    19 r.23                  58.1333             0               
    20 r.24                    15.13      -985.201               
    21 r.25                  1058.13             0               
    22 r.26                 -999.151      -999.151               
    23 r.27                  58.1333             0               
    24 r.28                   0.8491      -998.141               
    25 r.29                  58.1333             0               
    26 r.30                  58.1333      -983.162               
    27 r.31                  1058.13             0               
    28 r.32                 -941.867      -956.997               
    29 r.33                  1058.13             0               
    30 r.34                 -941.867      -983.234               
    31 r.35                  58.1333             0               
    32 r.36                  58.1333      -957.206               
    33 r.37                        1             1             = 
    34 r.38                        1             1             = 
    35 r.39                        1             1             = 
    36 r.40                        1             1             = 
    37 r.41                        1             1             = 
    38 r.42                        1             1             = 
    39 r.43                        1             1             = 
    40 r.44                        1             1             = 
    41 r.45                        2             2               
    42 r.46                       -2         -1001               
    43 r.47                  -966.61      -991.753               
    44 r.48                     1000             2               
    45 r.49                    -1000         -1001               
    46 r.50                  2026.24      -979.468               
    47 r.51                        2             2               
    48 r.52                       -2         -1001               
    49 r.53                 -974.857      -987.364               
    50 r.54                     1000             2               
    51 r.55                    -1000         -1001               
    52 r.56                  2026.24      -967.152               
    53 r.57                        2             2               
    54 r.58                       -2         -1001               
    55 r.59                 -987.493      -993.528               
    56 r.60                     1000             2               
    57 r.61                    -1000         -1001               
    58 r.62                  2005.35      -984.358               
    59 r.63                        2             2               
    60 r.64                       -2         -1001               
    61 r.65                 -993.964      -993.964               
    62 r.66                     1000             2               
    63 r.67                    -1000         -1001               
    64 r.68                     2000      -985.201               
    65 r.69                 -992.872      -992.872               
    66 r.70                  14.2809      -981.829               
    67 r.71                 -992.872      -992.872               
    68 r.72                  14.2809      -981.829               
    69 r.73                  50.1562      -983.162               
    70 r.74                 -949.844      -956.997               
    71 r.75                  43.0033      -983.162               
    72 r.76                 -956.997      -956.997               
    73 r.77                        2             2               
    74 r.78                       -2         -1001               
    75 r.79                 -949.844      -983.234               
    76 r.80                     1000             2               
    77 r.81                    -1000         -1001               
    78 r.82                     2043      -957.206               
    79 r.83                        2             2               
    80 r.84                       -2         -1001               
    81 r.85                   966.61         7.128               
    82 r.86                     1000             2               
    83 r.87                    -1000         -1001               
    84 r.88                  1973.76       18.1712               
    85 r.89                        2             2               
    86 r.90                       -2         -1001               
    87 r.91                  -8.2467      -987.364               
    88 r.92                     1000             2               
    89 r.93                    -1000         -1001               
    90 r.94                     2000      -967.152               
    91 r.95                        2             2               
    92 r.96                       -2         -1001               
    93 r.97                 -20.8824      -993.528               
    94 r.98                     1000             2               
    95 r.99                    -1000         -1001               
    96 r.100                 1979.12      -984.358               
    97 r.101                       2             2               
    98 r.102                      -2         -1001               
    99 r.103                 -27.354      -993.964               
   100 r.104                    1000             2               
   101 r.105                   -1000         -1001               
   102 r.106                 1973.76      -985.201               
   103 r.107                -959.482      -991.753               
   104 r.108                 40.5178      -979.468               
   105 r.109                -959.482      -991.753               
   106 r.110                 40.5178      -979.468               
   107 r.111                    1001             2               
   108 r.112                   -1001         -1001               
   109 r.113                 2016.77      -983.162               
   110 r.114                    1001             2               
   111 r.115                   -1001         -1001               
   112 r.116                 2016.77      -956.997               
   113 r.117                -983.234      -983.234               
   114 r.118                 16.7664      -957.206               
   115 r.119                -983.234      -983.234               
   116 r.120                 16.7664      -957.206               
   117 r.121                       2             2               
   118 r.122                      -2         -1001               
   119 r.123                 974.857         7.128               
   120 r.124                    1000             2               
   121 r.125                   -1000         -1001               
   122 r.126                 1973.76       18.1712               
   123 r.127                       2             2               
   124 r.128                      -2         -1001               
   125 r.129                  8.2467        8.2467               
   126 r.130                    1000             2               
   127 r.131                   -1000         -1001               
   128 r.132                    2000       20.5322               
   129 r.133                -987.364      -987.364               
   130 r.134                 20.8824      -967.152               
   131 r.135                -987.364      -987.364               
   132 r.136                 20.8824      -967.152               
   133 r.137                       2             2               
   134 r.138                      -2         -1001               
   135 r.139                -19.1073      -993.964               
   136 r.140                    1000             2               
   137 r.141                   -1000         -1001               
   138 r.142                 1973.76      -985.201               
   139 r.143                -967.729      -987.364               
   140 r.144                 40.5178      -967.152               
   141 r.145                -967.729      -987.364               
   142 r.146                 40.5178      -967.152               
   143 r.147                    1001             2               
   144 r.148                   -1001         -1001               
   145 r.149                 2025.01      -983.162               
   146 r.150                    1001             2               
   147 r.151                   -1001         -1001               
   148 r.152                 2016.77      -956.997               
   149 r.153                -974.987      -983.234               
   150 r.154                 25.0131      -957.206               
   151 r.155                -983.234      -983.234               
   152 r.156                 16.7664      -957.206               
   153 r.157                       2             2               
   154 r.158                      -2         -1001               
   155 r.159                 987.493         7.128               
   156 r.160                    1000             2               
   157 r.161                   -1000         -1001               
   158 r.162                 1994.65       18.1712               
   159 r.163                       2             2               
   160 r.164                      -2         -1001               
   161 r.165                 20.8824        8.2467               
   162 r.166                    1000             2               
   163 r.167                   -1000         -1001               
   164 r.168                 2020.88       20.5322               
   165 r.169                       2             2               
   166 r.170                      -2         -1001               
   167 r.171                -6.47161      -993.964               
   168 r.172                    1000             2               
   169 r.173                   -1000         -1001               
   170 r.174                 1994.65      -985.201               
   171 r.175                -980.365      -993.528               
   172 r.176                 19.6354      -984.358               
   173 r.177                -980.365      -993.528               
   174 r.178                 19.6354      -984.358               
   175 r.179                    1001             2               
   176 r.180                   -1001         -1001               
   177 r.181                 2037.65      -983.162               
   178 r.182                    1001             2               
   179 r.183                   -1001         -1001               
   180 r.184                 2037.65      -956.997               
   181 r.185                -962.351      -983.234               
   182 r.186                 37.6488      -957.206               
   183 r.187                -962.351      -983.234               
   184 r.188                 37.6488      -957.206               
   185 r.189                       2             2               
   186 r.190                      -2         -1001               
   187 r.191                 993.964         7.128               
   188 r.192                    1000             2               
   189 r.193                   -1000         -1001               
   190 r.194                    2000       18.1712               
   191 r.195                       2             2               
   192 r.196                      -2         -1001               
   193 r.197                  27.354        8.2467               
   194 r.198                    1000             2               
   195 r.199                   -1000         -1001               
   196 r.200                 2026.24       20.5322               
   197 r.201                       2             2               
   198 r.202                      -2         -1001               
   199 r.203                 19.1073       12.6357               
   200 r.204                    1000             2               
   201 r.205                   -1000         -1001               
   202 r.206                 2026.24       32.8481               
   203 r.207                       2             2               
   204 r.208                      -2         -1001               
   205 r.209                 6.47161       6.47161               
   206 r.210                    1000             2               
   207 r.211                   -1000         -1001               
   208 r.212                 2005.35       15.6425               
   209 r.213                -986.836      -993.964               
   210 r.214                 14.2809      -985.201               
   211 r.215                -986.836      -993.964               
   212 r.216                 14.2809      -985.201               
   213 r.217                 44.1204      -983.162               
   214 r.218                 -955.88      -956.997               
   215 r.219                 43.0033      -983.162               
   216 r.220                -956.997      -956.997               
   217 r.221                 -955.88      -983.234               
   218 r.222                 44.1204      -957.206               
   219 r.223                -956.997      -983.234               
   220 r.224                 43.0033      -957.206               
   221 r.225                    1001             2               
   222 r.226                   -1001         -1001               
   223 r.227                 1983.23        8.2467               
   224 r.228                    1001             2               
   225 r.229                   -1001         -1001               
   226 r.230                 1983.23       20.5322               
   227 r.231                    1001             2               
   228 r.232                   -1001         -1001               
   229 r.233                 1974.99       12.6357               
   230 r.234                    1001             2               
   231 r.235                   -1001         -1001               
   232 r.236                 1983.23       32.8481               
   233 r.237                    1001             2               
   234 r.238                   -1001         -1001               
   235 r.239                 1962.35       6.47161               
   236 r.240                    1001             2               
   237 r.241                   -1001         -1001               
   238 r.242                 1962.35       15.6425               
   239 r.243                    1001             2               
   240 r.244                   -1001         -1001               
   241 r.245                    2000      -983.234               
   242 r.246                    1001             2               
   243 r.247                   -1001         -1001               
   244 r.248                    2000      -957.206               
   245 r.249                       2             2               
   246 r.250                      -2         -1001               
   247 r.251                 949.844         7.128               
   248 r.252                    1000             2               
   249 r.253                   -1000         -1001               
   250 r.254                    1957       18.1712               
   251 r.255                    1001             2               
   252 r.256                   -1001         -1001               
   253 r.257                    2000       16.8382               
   254 r.258                    1001             2               
   255 r.259                   -1001         -1001               
   256 r.260                    2000       43.0033               

   No. Column name       Activity     Lower bound   Upper bound
------ ------------    ------------- ------------- -------------
     1 tt                    58.1333             0               
     2 s_1_1        *              1             0             1 
     3 t_1_1                 50.1562             0               
     4 s_1_7        *              0             0             1 
     5 s_2_1        *              0             0             1 
     6 t_2_1                 43.0033             0               
     7 s_2_7        *              1             0             1 
     8 s_1_2        *              1             0             1 
     9 t_1_2                 16.7664             0               
    10 s_1_8        *              1             0             1 
    11 s_2_2        *              0             0             1 
    12 t_2_2                 16.7664             0               
    13 s_2_8        *              0             0             1 
    14 s_1_3        *              1             0             1 
    15 t_1_3                 25.0131             0               
    16 s_2_3        *              0             0             1 
    17 t_2_3                 16.7664             0               
    18 s_1_4        *              1             0             1 
    19 t_1_4                 37.6488             0               
    20 s_2_4        *              0             0             1 
    21 t_2_4                 37.6488             0               
    22 s_1_5        *              1             0             1 
    23 t_1_5                 44.1204             0               
    24 s_2_5        *              0             0             1 
    25 t_2_5                 43.0033             0               
    26 s_1_6        *              1             0             1 
    27 t_1_6                 57.2842             0               
    28 s_2_6        *              0             0             1 
    29 t_2_6                 57.2842             0               
    30 t_1_7                       0             0               
    31 t_2_7                       0             0               
    32 t_1_8                       0             0               
    33 t_2_8                       0             0               
    34 r_1_1_2      *              0             0             1 
    35 u_1_1_2      *              1             0             1 
    36 r_2_1_2      *              1             0             1 
    37 u_2_1_2      *              0             0             1 
    38 r_1_1_3      *              0             0             1 
    39 u_1_1_3      *              1             0             1 
    40 r_2_1_3      *              1             0             1 
    41 u_2_1_3      *              0             0             1 
    42 r_1_1_4      *              0             0             1 
    43 u_1_1_4      *              1             0             1 
    44 r_2_1_4      *              1             0             1 
    45 u_2_1_4      *              0             0             1 
    46 r_1_1_5      *              0             0             1 
    47 u_1_1_5      *              1             0             1 
    48 r_2_1_5      *              1             0             1 
    49 u_2_1_5      *              0             0             1 
    50 r_1_1_8      *              0             0             1 
    51 u_1_1_8      *              1             0             1 
    52 r_2_1_8      *              1             0             1 
    53 u_2_1_8      *              0             0             1 
    54 r_1_2_3      *              0             0             1 
    55 u_1_2_3      *              0             0             1 
    56 r_2_2_3      *              1             0             1 
    57 u_2_2_3      *              0             0             1 
    58 r_1_2_4      *              0             0             1 
    59 u_1_2_4      *              0             0             1 
    60 r_2_2_4      *              1             0             1 
    61 u_2_2_4      *              0             0             1 
    62 r_1_2_5      *              0             0             1 
    63 u_1_2_5      *              0             0             1 
    64 r_2_2_5      *              1             0             1 
    65 u_2_2_5      *              0             0             1 
    66 r_1_2_7      *              1             0             1 
    67 u_1_2_7      *              0             0             1 
    68 r_2_2_7      *              1             0             1 
    69 u_2_2_7      *              0             0             1 
    70 r_1_3_5      *              0             0             1 
    71 u_1_3_5      *              0             0             1 
    72 r_2_3_5      *              1             0             1 
    73 u_2_3_5      *              0             0             1 
    74 r_1_3_7      *              1             0             1 
    75 u_1_3_7      *              0             0             1 
    76 r_2_3_7      *              1             0             1 
    77 u_2_3_7      *              0             0             1 
    78 r_1_4_5      *              0             0             1 
    79 u_1_4_5      *              0             0             1 
    80 r_2_4_5      *              1             0             1 
    81 u_2_4_5      *              0             0             1 
    82 r_1_4_7      *              1             0             1 
    83 u_1_4_7      *              0             0             1 
    84 r_2_4_7      *              1             0             1 
    85 u_2_4_7      *              0             0             1 
    86 r_1_7_8      *              1             0             1 
    87 u_1_7_8      *              0             0             1 
    88 r_2_7_8      *              1             0             1 
    89 u_2_7_8      *              0             0             1 

Integer feasibility conditions:

KKT.PE: max.abs.err = 2.27e-13 on row 10
        max.rel.err = 1.11e-16 on row 10
        High quality

KKT.PB: max.abs.err = 1.14e-13 on row 65
        max.rel.err = 1.16e-16 on row 113
        High quality

End of output
